p tw 53 121
5 52
5 16
5 24
5 13
10 24
10 16
1 6
1 2
1 21
1 19
1 18
1 8
6 23
6 8
2 10
2 12
2 18
2 15
8 20
8 17
8 16
4 16
4 23
4 24
4 8
4 10
42 53
42 48
42 50
24 25
24 51
37 43
37 50
14 21
14 23
29 43
29 36
29 31
21 53
21 22
21 23
33 36
33 46
28 47
28 35
28 36
28 37
28 38
38 39
38 46
9 10
9 21
9 17
9 23
13 52
13 19
13 22
41 48
41 43
45 46
17 21
17 20
32 35
32 46
34 42
34 36
34 48
34 49
22 51
44 50
27 48
12 22
12 20
12 16
49 51
7 23
7 18
7 10
39 44
39 49
3 9
3 24
3 53
3 14
3 10
35 37
35 49
35 39
35 50
48 50
48 51
50 53
16 25
31 49
31 43
31 35
11 15
11 25
43 47
40 48
40 52
40 49
26 42
26 43
26 49
26 32
26 41
26 52
26 50
26 36
23 24
36 46
36 44
36 49
30 45
30 40
30 43
30 33
30 39
15 18
15 21
